data/CVRPLIB/Vrp-Set-XML100/instances/XML100_3215_15.vrp
NAME : XML100_3215_15
COMMENT : Generated by Queiroga, Sadykov, Uchoa, and Vidal (2021)
TYPE : CVRP
DIMENSION : 101
EDGE_WEIGHT_TYPE : EUC_2D
CAPACITY : 16
NODE_COORD_SECTION
1    0    0   
2    953  266 
3    577  101 
4    919  268 
5    364  10  
6    615  122 
7    580  143 
8    374  90  
9    631  195 
10   559  78  
11   554  264 
12   655  131 
13   446  125 
14   372  61  
15   696  23  
16   498  223 
17   978  414 
18   523  140 
19   555  13  
20   661  143 
21   464  131 
22   607  22  
23   773  320 
24   689  283 
25   448  29  
26   579  141 
27   331  99  
28   420  87  
29   365  7   
30   912  405 
31   993  352 
32   786  158 
33   581  125 
34   680  132 
35   937  416 
36   865  246 
37   285  31  
38   437  132 
39   354  96  
40   788  229 
41   962  388 
42   866  602 
43   835  391 
44   527  142 
45   800  285 
46   450  71  
47   637  360 
48   906  394 
49   946  443 
50   351  66  
51   550  19  
52   524  98  
53   595  177 
54   502  27  
55   424  117 
56   551  103 
57   706  138 
58   357  111 
59   478  39  
60   571  253 
61   962  317 
62   631  95  
63   359  1   
64   530  78  
65   865  421 
66   964  310 
67   516  222 
68   706  252 
69   764  28  
70   673  162 
71   597  79  
72   928  431 
73   445  40  
74   535  265 
75   428  25  
76   429  80  
77   847  391 
78   917  466 
79   848  298 
80   852  301 
81   956  351 
82   594  142 
83   329  151 
84   437  9   
85   921  384 
86   612  214 
87   794  82  
88   396  3   
89   624  140 
90   424  24  
91   836  325 
92   608  141 
93   820  426 
94   918  585 
95   681  11  
96   897  521 
97   251  160 
98   811  459 
99   747  526 
100  808  495 
101  483  69  
DEMAND_SECTION
1    0   
2    1   
3    1   
4    1   
5    1   
6    1   
7    1   
8    1   
9    1   
10   1   
11   1   
12   1   
13   1   
14   1   
15   1   
16   1   
17   1   
18   1   
19   1   
20   1   
21   1   
22   1   
23   1   
24   1   
25   1   
26   1   
27   1   
28   1   
29   1   
30   1   
31   1   
32   1   
33   1   
34   1   
35   1   
36   1   
37   1   
38   1   
39   1   
40   1   
41   1   
42   1   
43   1   
44   1   
45   1   
46   1   
47   1   
48   1   
49   1   
50   1   
51   1   
52   1   
53   1   
54   1   
55   1   
56   1   
57   1   
58   1   
59   1   
60   1   
61   1   
62   1   
63   1   
64   1   
65   1   
66   1   
67   1   
68   1   
69   1   
70   1   
71   1   
72   1   
73   1   
74   1   
75   1   
76   1   
77   1   
78   1   
79   1   
80   1   
81   1   
82   1   
83   1   
84   1   
85   1   
86   1   
87   1   
88   1   
89   1   
90   1   
91   1   
92   1   
93   1   
94   1   
95   1   
96   1   
97   1   
98   1   
99   1   
100  1   
101  1   
DEPOT_SECTION
1
-1
EOF
