data/CVRPLIB/Vrp-Set-XML100/solutions/XML100_3215_15.sol
Route #1: 58 53 50 18 21 94 14 68 86 31 39 67 23 59 10 73
Route #2: 26 38 57 82 96
Route #3: 51 55 2 32 5 88 91 81 6 25 43 17 20 12 37 54
Route #4: 35 3 1 65 60 80 30 40 16 48 77 95 93 41 99 98
Route #5: 22 44 78 79 90 84 47 29 34 71 64 76 42 92 97 46
Route #6: 36 49 7 27 75 45 72 24 83 74 89 87 4 28 62
Route #7: 13 100 63 9 70 61 11 19 33 56 69 8 85 52 66 15
Cost 11371
